\ Model makespan
\ LP format - for model browsing. Use MPS format to capture full model detail.
Minimize
  y
Subject To
 R0: 7 x[0,0] + 15 x[0,1] + 16 x[0,2] + 13 x[0,3] + 13 x[0,4] + 4 x[0,5]
   + 18 x[0,6] + 14 x[0,7] + 15 x[0,8] + 15 x[0,9] + 12 x[0,10] + 4 x[0,11]
   + 21 x[0,12] + 14 x[0,13] + 5 x[0,14] + 8 x[0,15] + 23 x[0,16]
   + 11 x[0,17] + 18 x[0,18] + 14 x[0,19] - y <= 0
 R1: 20 x[1,0] + 14 x[1,1] + 3 x[1,2] + 17 x[1,3] + 13 x[1,4] + 7 x[1,5]
   + 6 x[1,6] + 18 x[1,7] + 19 x[1,8] + 11 x[1,9] + x[1,10] + 3 x[1,11]
   + 21 x[1,12] + 2 x[1,13] + 24 x[1,14] + 7 x[1,15] + 21 x[1,16]
   + 12 x[1,17] + 12 x[1,18] + 11 x[1,19] - y <= 0
 R2: 18 x[2,0] + 11 x[2,1] + 19 x[2,2] + 4 x[2,3] + 10 x[2,4] + 20 x[2,5]
   + 7 x[2,6] + 11 x[2,7] + 15 x[2,8] + 22 x[2,9] + 6 x[2,10] + 18 x[2,11]
   + 20 x[2,12] + 12 x[2,13] + 21 x[2,14] + 19 x[2,15] + 15 x[2,16]
   + 11 x[2,17] + 17 x[2,18] + 6 x[2,19] - y <= 0
 R3: x[3,0] + 9 x[3,1] + 17 x[3,2] + 13 x[3,3] + 18 x[3,4] + 13 x[3,5]
   + 7 x[3,6] + 8 x[3,7] + 8 x[3,8] + 7 x[3,9] + 4 x[3,10] + 10 x[3,11]
   + 24 x[3,12] + 2 x[3,13] + 11 x[3,14] + 21 x[3,15] + 9 x[3,16]
   + 22 x[3,17] + x[3,18] + 13 x[3,19] - y <= 0
 R4: 5 x[4,0] + 13 x[4,1] + 9 x[4,2] + 24 x[4,3] + 10 x[4,4] + 11 x[4,5]
   + 13 x[4,6] + 21 x[4,7] + 23 x[4,8] + 15 x[4,9] + 3 x[4,10] + 10 x[4,11]
   + 17 x[4,12] + 10 x[4,13] + 16 x[4,14] + 21 x[4,15] + 23 x[4,16]
   + 19 x[4,17] + 8 x[4,18] + 6 x[4,19] - y <= 0
 R5: x[0,0] + x[1,0] + x[2,0] + x[3,0] + x[4,0] = 1
 R6: x[0,1] + x[1,1] + x[2,1] + x[3,1] + x[4,1] = 1
 R7: x[0,2] + x[1,2] + x[2,2] + x[3,2] + x[4,2] = 1
 R8: x[0,3] + x[1,3] + x[2,3] + x[3,3] + x[4,3] = 1
 R9: x[0,4] + x[1,4] + x[2,4] + x[3,4] + x[4,4] = 1
 R10: x[0,5] + x[1,5] + x[2,5] + x[3,5] + x[4,5] = 1
 R11: x[0,6] + x[1,6] + x[2,6] + x[3,6] + x[4,6] = 1
 R12: x[0,7] + x[1,7] + x[2,7] + x[3,7] + x[4,7] = 1
 R13: x[0,8] + x[1,8] + x[2,8] + x[3,8] + x[4,8] = 1
 R14: x[0,9] + x[1,9] + x[2,9] + x[3,9] + x[4,9] = 1
 R15: x[0,10] + x[1,10] + x[2,10] + x[3,10] + x[4,10] = 1
 R16: x[0,11] + x[1,11] + x[2,11] + x[3,11] + x[4,11] = 1
 R17: x[0,12] + x[1,12] + x[2,12] + x[3,12] + x[4,12] = 1
 R18: x[0,13] + x[1,13] + x[2,13] + x[3,13] + x[4,13] = 1
 R19: x[0,14] + x[1,14] + x[2,14] + x[3,14] + x[4,14] = 1
 R20: x[0,15] + x[1,15] + x[2,15] + x[3,15] + x[4,15] = 1
 R21: x[0,16] + x[1,16] + x[2,16] + x[3,16] + x[4,16] = 1
 R22: x[0,17] + x[1,17] + x[2,17] + x[3,17] + x[4,17] = 1
 R23: x[0,18] + x[1,18] + x[2,18] + x[3,18] + x[4,18] = 1
 R24: x[0,19] + x[1,19] + x[2,19] + x[3,19] + x[4,19] = 1
Bounds
Binaries
 x[0,0] x[0,1] x[0,2] x[0,3] x[0,4] x[0,5] x[0,6] x[0,7] x[0,8] x[0,9]
 x[0,10] x[0,11] x[0,12] x[0,13] x[0,14] x[0,15] x[0,16] x[0,17] x[0,18]
 x[0,19] x[1,0] x[1,1] x[1,2] x[1,3] x[1,4] x[1,5] x[1,6] x[1,7] x[1,8]
 x[1,9] x[1,10] x[1,11] x[1,12] x[1,13] x[1,14] x[1,15] x[1,16] x[1,17]
 x[1,18] x[1,19] x[2,0] x[2,1] x[2,2] x[2,3] x[2,4] x[2,5] x[2,6] x[2,7]
 x[2,8] x[2,9] x[2,10] x[2,11] x[2,12] x[2,13] x[2,14] x[2,15] x[2,16]
 x[2,17] x[2,18] x[2,19] x[3,0] x[3,1] x[3,2] x[3,3] x[3,4] x[3,5] x[3,6]
 x[3,7] x[3,8] x[3,9] x[3,10] x[3,11] x[3,12] x[3,13] x[3,14] x[3,15]
 x[3,16] x[3,17] x[3,18] x[3,19] x[4,0] x[4,1] x[4,2] x[4,3] x[4,4] x[4,5]
 x[4,6] x[4,7] x[4,8] x[4,9] x[4,10] x[4,11] x[4,12] x[4,13] x[4,14]
 x[4,15] x[4,16] x[4,17] x[4,18] x[4,19]
Generals
 y
End
